; benchmark generated from python API
(set-info :status unknown)
(declare-fun x_v0q0.i () Real)
(declare-fun x_v0q0.r () Real)
(declare-fun x_v0q1.i () Real)
(declare-fun x_v0q1.r () Real)
(declare-fun x_v0q2.i () Real)
(declare-fun x_v0q2.r () Real)
(declare-fun x_v0q3.i () Real)
(declare-fun x_v0q3.r () Real)
(declare-fun x_v0q4.i () Real)
(declare-fun x_v0q4.r () Real)
(declare-fun x_v0q5.i () Real)
(declare-fun x_v0q5.r () Real)
(declare-fun x_v0q6.i () Real)
(declare-fun x_v0q6.r () Real)
(declare-fun x_v0q7.i () Real)
(declare-fun x_v0q7.r () Real)
(declare-fun x_v1q0.i () Real)
(declare-fun x_v1q0.r () Real)
(declare-fun x_v1q1.i () Real)
(declare-fun x_v1q1.r () Real)
(declare-fun x_v1q2.i () Real)
(declare-fun x_v1q2.r () Real)
(declare-fun x_v1q3.i () Real)
(declare-fun x_v1q3.r () Real)
(declare-fun x_v1q4.i () Real)
(declare-fun x_v1q4.r () Real)
(declare-fun x_v1q5.i () Real)
(declare-fun x_v1q5.r () Real)
(declare-fun x_v1q6.i () Real)
(declare-fun x_v1q6.r () Real)
(declare-fun x_v1q7.i () Real)
(declare-fun x_v1q7.r () Real)
(declare-fun f (Int) Int)
(declare-fun x_v4q0.i () Real)
(declare-fun x_v4q0.r () Real)
(declare-fun x_v4q1.i () Real)
(declare-fun x_v4q1.r () Real)
(declare-fun x_v4q2.i () Real)
(declare-fun x_v4q2.r () Real)
(declare-fun x_v4q3.i () Real)
(declare-fun x_v4q3.r () Real)
(declare-fun x_v4q4.i () Real)
(declare-fun x_v4q4.r () Real)
(declare-fun x_v4q5.i () Real)
(declare-fun x_v4q5.r () Real)
(declare-fun x_v4q6.i () Real)
(declare-fun x_v4q6.r () Real)
(declare-fun x_v4q7.i () Real)
(declare-fun x_v4q7.r () Real)
(declare-fun x_v5q0.i () Real)
(declare-fun x_v5q0.r () Real)
(declare-fun x_v5q1.i () Real)
(declare-fun x_v5q1.r () Real)
(declare-fun x_v5q2.i () Real)
(declare-fun x_v5q2.r () Real)
(declare-fun x_v5q3.i () Real)
(declare-fun x_v5q3.r () Real)
(declare-fun x_v5q4.i () Real)
(declare-fun x_v5q4.r () Real)
(declare-fun x_v5q5.i () Real)
(declare-fun x_v5q5.r () Real)
(declare-fun x_v5q6.i () Real)
(declare-fun x_v5q6.r () Real)
(declare-fun x_v5q7.i () Real)
(declare-fun x_v5q7.r () Real)
(declare-fun x_v8q0.i () Real)
(declare-fun x_v8q0.r () Real)
(declare-fun x_v8q1.i () Real)
(declare-fun x_v8q1.r () Real)
(declare-fun x_v8q2.i () Real)
(declare-fun x_v8q2.r () Real)
(declare-fun x_v8q3.i () Real)
(declare-fun x_v8q3.r () Real)
(declare-fun x_v8q4.i () Real)
(declare-fun x_v8q4.r () Real)
(declare-fun x_v8q5.i () Real)
(declare-fun x_v8q5.r () Real)
(declare-fun x_v8q6.i () Real)
(declare-fun x_v8q6.r () Real)
(declare-fun x_v8q7.i () Real)
(declare-fun x_v8q7.r () Real)
(declare-fun x_v9q0.i () Real)
(declare-fun x_v9q0.r () Real)
(declare-fun x_v9q1.i () Real)
(declare-fun x_v9q1.r () Real)
(declare-fun x_v9q2.i () Real)
(declare-fun x_v9q2.r () Real)
(declare-fun x_v9q3.i () Real)
(declare-fun x_v9q3.r () Real)
(declare-fun x_v9q4.i () Real)
(declare-fun x_v9q4.r () Real)
(declare-fun x_v9q5.i () Real)
(declare-fun x_v9q5.r () Real)
(declare-fun x_v9q6.i () Real)
(declare-fun x_v9q6.r () Real)
(declare-fun x_v9q7.i () Real)
(declare-fun x_v9q7.r () Real)
(declare-fun Pr_x_v9_7 () Real)
(declare-fun Pr_x_v9_6 () Real)
(declare-fun Pr_x_v9_5 () Real)
(declare-fun Pr_x_v9_4 () Real)
(declare-fun Pr_x_v9_3 () Real)
(declare-fun Pr_x_v9_2 () Real)
(declare-fun Pr_x_v9_1 () Real)
(declare-fun Pr_x_v9_0 () Real)
(declare-fun Pr_x_v9_sum () Real)
(declare-fun hprob_x () Real)
(declare-fun a () Int)
(declare-fun meas_x () Int)
(declare-fun x_v0c () Int)
(declare-fun grover_fixed_ret () Int)
(assert
 (and (= x_v0q0.r 1.0) (= 0.0 x_v0q0.i)))
(assert
 (and (= x_v0q1.r 0.0) (= 0.0 x_v0q1.i)))
(assert
 (and (= x_v0q2.r 0.0) (= 0.0 x_v0q2.i)))
(assert
 (and (= x_v0q3.r 0.0) (= 0.0 x_v0q3.i)))
(assert
 (and (= x_v0q4.r 0.0) (= 0.0 x_v0q4.i)))
(assert
 (and (= x_v0q5.r 0.0) (= 0.0 x_v0q5.i)))
(assert
 (and (= x_v0q6.r 0.0) (= 0.0 x_v0q6.i)))
(assert
 (and (= x_v0q7.r 0.0) (= 0.0 x_v0q7.i)))
(assert
 (let ((?x230 (+ (* (root-obj (+ (* 8 (^ x 2)) (- 1)) 2) x_v0q0.i) (* (root-obj (+ (* 8 (^ x 2)) (- 1)) 2) x_v0q1.i) (* (root-obj (+ (* 8 (^ x 2)) (- 1)) 2) x_v0q2.i) (* (root-obj (+ (* 8 (^ x 2)) (- 1)) 2) x_v0q3.i) (* (root-obj (+ (* 8 (^ x 2)) (- 1)) 2) x_v0q4.i) (* (root-obj (+ (* 8 (^ x 2)) (- 1)) 2) x_v0q5.i) (* (root-obj (+ (* 8 (^ x 2)) (- 1)) 2) x_v0q6.i) (* (root-obj (+ (* 8 (^ x 2)) (- 1)) 2) x_v0q7.i))))
 (let ((?x228 (+ (* (root-obj (+ (* 8 (^ x 2)) (- 1)) 2) x_v0q0.r) (* (root-obj (+ (* 8 (^ x 2)) (- 1)) 2) x_v0q1.r) (* (root-obj (+ (* 8 (^ x 2)) (- 1)) 2) x_v0q2.r) (* (root-obj (+ (* 8 (^ x 2)) (- 1)) 2) x_v0q3.r) (* (root-obj (+ (* 8 (^ x 2)) (- 1)) 2) x_v0q4.r) (* (root-obj (+ (* 8 (^ x 2)) (- 1)) 2) x_v0q5.r) (* (root-obj (+ (* 8 (^ x 2)) (- 1)) 2) x_v0q6.r) (* (root-obj (+ (* 8 (^ x 2)) (- 1)) 2) x_v0q7.r))))
 (and (= x_v1q0.r ?x228) (= x_v1q0.i ?x230)))))
(assert
 (let ((?x313 (+ (* (root-obj (+ (* 8 (^ x 2)) (- 1)) 2) x_v0q0.i) (* (root-obj (+ (* 8 (^ x 2)) (- 1)) 1) x_v0q1.i) (* (root-obj (+ (* 8 (^ x 2)) (- 1)) 2) x_v0q2.i) (* (root-obj (+ (* 8 (^ x 2)) (- 1)) 1) x_v0q3.i) (* (root-obj (+ (* 8 (^ x 2)) (- 1)) 2) x_v0q4.i) (* (root-obj (+ (* 8 (^ x 2)) (- 1)) 1) x_v0q5.i) (* (root-obj (+ (* 8 (^ x 2)) (- 1)) 2) x_v0q6.i) (* (root-obj (+ (* 8 (^ x 2)) (- 1)) 1) x_v0q7.i))))
 (let ((?x82 (+ (* (root-obj (+ (* 8 (^ x 2)) (- 1)) 2) x_v0q0.r) (* (root-obj (+ (* 8 (^ x 2)) (- 1)) 1) x_v0q1.r) (* (root-obj (+ (* 8 (^ x 2)) (- 1)) 2) x_v0q2.r) (* (root-obj (+ (* 8 (^ x 2)) (- 1)) 1) x_v0q3.r) (* (root-obj (+ (* 8 (^ x 2)) (- 1)) 2) x_v0q4.r) (* (root-obj (+ (* 8 (^ x 2)) (- 1)) 1) x_v0q5.r) (* (root-obj (+ (* 8 (^ x 2)) (- 1)) 2) x_v0q6.r) (* (root-obj (+ (* 8 (^ x 2)) (- 1)) 1) x_v0q7.r))))
 (and (= x_v1q1.r ?x82) (= x_v1q1.i ?x313)))))
(assert
 (let ((?x149 (+ (* (root-obj (+ (* 8 (^ x 2)) (- 1)) 2) x_v0q0.i) (* (root-obj (+ (* 8 (^ x 2)) (- 1)) 2) x_v0q1.i) (* (root-obj (+ (* 8 (^ x 2)) (- 1)) 1) x_v0q2.i) (* (root-obj (+ (* 8 (^ x 2)) (- 1)) 1) x_v0q3.i) (* (root-obj (+ (* 8 (^ x 2)) (- 1)) 2) x_v0q4.i) (* (root-obj (+ (* 8 (^ x 2)) (- 1)) 2) x_v0q5.i) (* (root-obj (+ (* 8 (^ x 2)) (- 1)) 1) x_v0q6.i) (* (root-obj (+ (* 8 (^ x 2)) (- 1)) 1) x_v0q7.i))))
 (let ((?x347 (+ (* (root-obj (+ (* 8 (^ x 2)) (- 1)) 2) x_v0q0.r) (* (root-obj (+ (* 8 (^ x 2)) (- 1)) 2) x_v0q1.r) (* (root-obj (+ (* 8 (^ x 2)) (- 1)) 1) x_v0q2.r) (* (root-obj (+ (* 8 (^ x 2)) (- 1)) 1) x_v0q3.r) (* (root-obj (+ (* 8 (^ x 2)) (- 1)) 2) x_v0q4.r) (* (root-obj (+ (* 8 (^ x 2)) (- 1)) 2) x_v0q5.r) (* (root-obj (+ (* 8 (^ x 2)) (- 1)) 1) x_v0q6.r) (* (root-obj (+ (* 8 (^ x 2)) (- 1)) 1) x_v0q7.r))))
 (and (= x_v1q2.r ?x347) (= x_v1q2.i ?x149)))))
(assert
 (let ((?x130 (+ (* (root-obj (+ (* 8 (^ x 2)) (- 1)) 2) x_v0q0.i) (* (root-obj (+ (* 8 (^ x 2)) (- 1)) 1) x_v0q1.i) (* (root-obj (+ (* 8 (^ x 2)) (- 1)) 1) x_v0q2.i) (* (root-obj (+ (* 8 (^ x 2)) (- 1)) 2) x_v0q3.i) (* (root-obj (+ (* 8 (^ x 2)) (- 1)) 2) x_v0q4.i) (* (root-obj (+ (* 8 (^ x 2)) (- 1)) 1) x_v0q5.i) (* (root-obj (+ (* 8 (^ x 2)) (- 1)) 1) x_v0q6.i) (* (root-obj (+ (* 8 (^ x 2)) (- 1)) 2) x_v0q7.i))))
 (let ((?x323 (+ (* (root-obj (+ (* 8 (^ x 2)) (- 1)) 2) x_v0q0.r) (* (root-obj (+ (* 8 (^ x 2)) (- 1)) 1) x_v0q1.r) (* (root-obj (+ (* 8 (^ x 2)) (- 1)) 1) x_v0q2.r) (* (root-obj (+ (* 8 (^ x 2)) (- 1)) 2) x_v0q3.r) (* (root-obj (+ (* 8 (^ x 2)) (- 1)) 2) x_v0q4.r) (* (root-obj (+ (* 8 (^ x 2)) (- 1)) 1) x_v0q5.r) (* (root-obj (+ (* 8 (^ x 2)) (- 1)) 1) x_v0q6.r) (* (root-obj (+ (* 8 (^ x 2)) (- 1)) 2) x_v0q7.r))))
 (and (= x_v1q3.r ?x323) (= x_v1q3.i ?x130)))))
(assert
 (let ((?x317 (+ (* (root-obj (+ (* 8 (^ x 2)) (- 1)) 2) x_v0q0.i) (* (root-obj (+ (* 8 (^ x 2)) (- 1)) 2) x_v0q1.i) (* (root-obj (+ (* 8 (^ x 2)) (- 1)) 2) x_v0q2.i) (* (root-obj (+ (* 8 (^ x 2)) (- 1)) 2) x_v0q3.i) (* (root-obj (+ (* 8 (^ x 2)) (- 1)) 1) x_v0q4.i) (* (root-obj (+ (* 8 (^ x 2)) (- 1)) 1) x_v0q5.i) (* (root-obj (+ (* 8 (^ x 2)) (- 1)) 1) x_v0q6.i) (* (root-obj (+ (* 8 (^ x 2)) (- 1)) 1) x_v0q7.i))))
 (let ((?x314 (+ (* (root-obj (+ (* 8 (^ x 2)) (- 1)) 2) x_v0q0.r) (* (root-obj (+ (* 8 (^ x 2)) (- 1)) 2) x_v0q1.r) (* (root-obj (+ (* 8 (^ x 2)) (- 1)) 2) x_v0q2.r) (* (root-obj (+ (* 8 (^ x 2)) (- 1)) 2) x_v0q3.r) (* (root-obj (+ (* 8 (^ x 2)) (- 1)) 1) x_v0q4.r) (* (root-obj (+ (* 8 (^ x 2)) (- 1)) 1) x_v0q5.r) (* (root-obj (+ (* 8 (^ x 2)) (- 1)) 1) x_v0q6.r) (* (root-obj (+ (* 8 (^ x 2)) (- 1)) 1) x_v0q7.r))))
 (and (= x_v1q4.r ?x314) (= x_v1q4.i ?x317)))))
(assert
 (let ((?x1117 (+ (* (root-obj (+ (* 8 (^ x 2)) (- 1)) 2) x_v0q0.i) (* (root-obj (+ (* 8 (^ x 2)) (- 1)) 1) x_v0q1.i) (* (root-obj (+ (* 8 (^ x 2)) (- 1)) 2) x_v0q2.i) (* (root-obj (+ (* 8 (^ x 2)) (- 1)) 1) x_v0q3.i) (* (root-obj (+ (* 8 (^ x 2)) (- 1)) 1) x_v0q4.i) (* (root-obj (+ (* 8 (^ x 2)) (- 1)) 2) x_v0q5.i) (* (root-obj (+ (* 8 (^ x 2)) (- 1)) 1) x_v0q6.i) (* (root-obj (+ (* 8 (^ x 2)) (- 1)) 2) x_v0q7.i))))
 (let ((?x1105 (+ (* (root-obj (+ (* 8 (^ x 2)) (- 1)) 2) x_v0q0.r) (* (root-obj (+ (* 8 (^ x 2)) (- 1)) 1) x_v0q1.r) (* (root-obj (+ (* 8 (^ x 2)) (- 1)) 2) x_v0q2.r) (* (root-obj (+ (* 8 (^ x 2)) (- 1)) 1) x_v0q3.r) (* (root-obj (+ (* 8 (^ x 2)) (- 1)) 1) x_v0q4.r) (* (root-obj (+ (* 8 (^ x 2)) (- 1)) 2) x_v0q5.r) (* (root-obj (+ (* 8 (^ x 2)) (- 1)) 1) x_v0q6.r) (* (root-obj (+ (* 8 (^ x 2)) (- 1)) 2) x_v0q7.r))))
 (and (= x_v1q5.r ?x1105) (= x_v1q5.i ?x1117)))))
(assert
 (let ((?x1083 (+ (* (root-obj (+ (* 8 (^ x 2)) (- 1)) 2) x_v0q0.i) (* (root-obj (+ (* 8 (^ x 2)) (- 1)) 2) x_v0q1.i) (* (root-obj (+ (* 8 (^ x 2)) (- 1)) 1) x_v0q2.i) (* (root-obj (+ (* 8 (^ x 2)) (- 1)) 1) x_v0q3.i) (* (root-obj (+ (* 8 (^ x 2)) (- 1)) 1) x_v0q4.i) (* (root-obj (+ (* 8 (^ x 2)) (- 1)) 1) x_v0q5.i) (* (root-obj (+ (* 8 (^ x 2)) (- 1)) 2) x_v0q6.i) (* (root-obj (+ (* 8 (^ x 2)) (- 1)) 2) x_v0q7.i))))
 (let ((?x1125 (+ (* (root-obj (+ (* 8 (^ x 2)) (- 1)) 2) x_v0q0.r) (* (root-obj (+ (* 8 (^ x 2)) (- 1)) 2) x_v0q1.r) (* (root-obj (+ (* 8 (^ x 2)) (- 1)) 1) x_v0q2.r) (* (root-obj (+ (* 8 (^ x 2)) (- 1)) 1) x_v0q3.r) (* (root-obj (+ (* 8 (^ x 2)) (- 1)) 1) x_v0q4.r) (* (root-obj (+ (* 8 (^ x 2)) (- 1)) 1) x_v0q5.r) (* (root-obj (+ (* 8 (^ x 2)) (- 1)) 2) x_v0q6.r) (* (root-obj (+ (* 8 (^ x 2)) (- 1)) 2) x_v0q7.r))))
 (and (= x_v1q6.r ?x1125) (= x_v1q6.i ?x1083)))))
(assert
 (let ((?x1070 (+ (* (root-obj (+ (* 8 (^ x 2)) (- 1)) 2) x_v0q0.i) (* (root-obj (+ (* 8 (^ x 2)) (- 1)) 1) x_v0q1.i) (* (root-obj (+ (* 8 (^ x 2)) (- 1)) 1) x_v0q2.i) (* (root-obj (+ (* 8 (^ x 2)) (- 1)) 2) x_v0q3.i) (* (root-obj (+ (* 8 (^ x 2)) (- 1)) 1) x_v0q4.i) (* (root-obj (+ (* 8 (^ x 2)) (- 1)) 2) x_v0q5.i) (* (root-obj (+ (* 8 (^ x 2)) (- 1)) 2) x_v0q6.i) (* (root-obj (+ (* 8 (^ x 2)) (- 1)) 1) x_v0q7.i))))
 (let ((?x1053 (+ (* (root-obj (+ (* 8 (^ x 2)) (- 1)) 2) x_v0q0.r) (* (root-obj (+ (* 8 (^ x 2)) (- 1)) 1) x_v0q1.r) (* (root-obj (+ (* 8 (^ x 2)) (- 1)) 1) x_v0q2.r) (* (root-obj (+ (* 8 (^ x 2)) (- 1)) 2) x_v0q3.r) (* (root-obj (+ (* 8 (^ x 2)) (- 1)) 1) x_v0q4.r) (* (root-obj (+ (* 8 (^ x 2)) (- 1)) 2) x_v0q5.r) (* (root-obj (+ (* 8 (^ x 2)) (- 1)) 2) x_v0q6.r) (* (root-obj (+ (* 8 (^ x 2)) (- 1)) 1) x_v0q7.r))))
 (and (= x_v1q7.r ?x1053) (= x_v1q7.i ?x1070)))))
(assert
 (let ((?x972 (+ 1.0 (* (- 2.0) (ite (= (f 0) 1) 1.0 0.0)))))
 (and (= x_v4q0.r (* x_v1q0.r ?x972)) (= x_v4q0.i (* x_v1q0.i ?x972)))))
(assert
 (let ((?x1702 (+ 1.0 (* (- 2.0) (ite (= (f 1) 1) 1.0 0.0)))))
 (and (= x_v4q1.r (* x_v1q1.r ?x1702)) (= x_v4q1.i (* x_v1q1.i ?x1702)))))
(assert
 (let ((?x285 (+ 1.0 (* (- 2.0) (ite (= (f 2) 1) 1.0 0.0)))))
 (and (= x_v4q2.r (* x_v1q2.r ?x285)) (= x_v4q2.i (* x_v1q2.i ?x285)))))
(assert
 (let ((?x1669 (+ 1.0 (* (- 2.0) (ite (= (f 3) 1) 1.0 0.0)))))
 (and (= x_v4q3.r (* x_v1q3.r ?x1669)) (= x_v4q3.i (* x_v1q3.i ?x1669)))))
(assert
 (let ((?x366 (+ 1.0 (* (- 2.0) (ite (= (f 4) 1) 1.0 0.0)))))
 (and (= x_v4q4.r (* x_v1q4.r ?x366)) (= x_v4q4.i (* x_v1q4.i ?x366)))))
(assert
 (let ((?x1679 (+ 1.0 (* (- 2.0) (ite (= (f 5) 1) 1.0 0.0)))))
 (and (= x_v4q5.r (* x_v1q5.r ?x1679)) (= x_v4q5.i (* x_v1q5.i ?x1679)))))
(assert
 (let ((?x571 (+ 1.0 (* (- 2.0) (ite (= (f 6) 1) 1.0 0.0)))))
 (and (= x_v4q6.r (* x_v1q6.r ?x571)) (= x_v4q6.i (* x_v1q6.i ?x571)))))
(assert
 (let ((?x1684 (+ 1.0 (* (- 2.0) (ite (= (f 7) 1) 1.0 0.0)))))
 (and (= x_v4q7.r (* x_v1q7.r ?x1684)) (= x_v4q7.i (* x_v1q7.i ?x1684)))))
(assert
 (let ((?x968 (+ (* (root-obj (+ (* 8 (^ x 2)) (- 1)) 2) x_v4q0.i) (* (root-obj (+ (* 8 (^ x 2)) (- 1)) 2) x_v4q1.i) (* (root-obj (+ (* 8 (^ x 2)) (- 1)) 2) x_v4q2.i) (* (root-obj (+ (* 8 (^ x 2)) (- 1)) 2) x_v4q3.i) (* (root-obj (+ (* 8 (^ x 2)) (- 1)) 2) x_v4q4.i) (* (root-obj (+ (* 8 (^ x 2)) (- 1)) 2) x_v4q5.i) (* (root-obj (+ (* 8 (^ x 2)) (- 1)) 2) x_v4q6.i) (* (root-obj (+ (* 8 (^ x 2)) (- 1)) 2) x_v4q7.i))))
 (let ((?x956 (+ (* (root-obj (+ (* 8 (^ x 2)) (- 1)) 2) x_v4q0.r) (* (root-obj (+ (* 8 (^ x 2)) (- 1)) 2) x_v4q1.r) (* (root-obj (+ (* 8 (^ x 2)) (- 1)) 2) x_v4q2.r) (* (root-obj (+ (* 8 (^ x 2)) (- 1)) 2) x_v4q3.r) (* (root-obj (+ (* 8 (^ x 2)) (- 1)) 2) x_v4q4.r) (* (root-obj (+ (* 8 (^ x 2)) (- 1)) 2) x_v4q5.r) (* (root-obj (+ (* 8 (^ x 2)) (- 1)) 2) x_v4q6.r) (* (root-obj (+ (* 8 (^ x 2)) (- 1)) 2) x_v4q7.r))))
 (and (= x_v5q0.r ?x956) (= x_v5q0.i ?x968)))))
(assert
 (let ((?x973 (+ (* (root-obj (+ (* 8 (^ x 2)) (- 1)) 2) x_v4q0.i) (* (root-obj (+ (* 8 (^ x 2)) (- 1)) 1) x_v4q1.i) (* (root-obj (+ (* 8 (^ x 2)) (- 1)) 2) x_v4q2.i) (* (root-obj (+ (* 8 (^ x 2)) (- 1)) 1) x_v4q3.i) (* (root-obj (+ (* 8 (^ x 2)) (- 1)) 2) x_v4q4.i) (* (root-obj (+ (* 8 (^ x 2)) (- 1)) 1) x_v4q5.i) (* (root-obj (+ (* 8 (^ x 2)) (- 1)) 2) x_v4q6.i) (* (root-obj (+ (* 8 (^ x 2)) (- 1)) 1) x_v4q7.i))))
 (let ((?x941 (+ (* (root-obj (+ (* 8 (^ x 2)) (- 1)) 2) x_v4q0.r) (* (root-obj (+ (* 8 (^ x 2)) (- 1)) 1) x_v4q1.r) (* (root-obj (+ (* 8 (^ x 2)) (- 1)) 2) x_v4q2.r) (* (root-obj (+ (* 8 (^ x 2)) (- 1)) 1) x_v4q3.r) (* (root-obj (+ (* 8 (^ x 2)) (- 1)) 2) x_v4q4.r) (* (root-obj (+ (* 8 (^ x 2)) (- 1)) 1) x_v4q5.r) (* (root-obj (+ (* 8 (^ x 2)) (- 1)) 2) x_v4q6.r) (* (root-obj (+ (* 8 (^ x 2)) (- 1)) 1) x_v4q7.r))))
 (and (= x_v5q1.r ?x941) (= x_v5q1.i ?x973)))))
(assert
 (let ((?x138 (+ (* (root-obj (+ (* 8 (^ x 2)) (- 1)) 2) x_v4q0.i) (* (root-obj (+ (* 8 (^ x 2)) (- 1)) 2) x_v4q1.i) (* (root-obj (+ (* 8 (^ x 2)) (- 1)) 1) x_v4q2.i) (* (root-obj (+ (* 8 (^ x 2)) (- 1)) 1) x_v4q3.i) (* (root-obj (+ (* 8 (^ x 2)) (- 1)) 2) x_v4q4.i) (* (root-obj (+ (* 8 (^ x 2)) (- 1)) 2) x_v4q5.i) (* (root-obj (+ (* 8 (^ x 2)) (- 1)) 1) x_v4q6.i) (* (root-obj (+ (* 8 (^ x 2)) (- 1)) 1) x_v4q7.i))))
 (let ((?x224 (+ (* (root-obj (+ (* 8 (^ x 2)) (- 1)) 2) x_v4q0.r) (* (root-obj (+ (* 8 (^ x 2)) (- 1)) 2) x_v4q1.r) (* (root-obj (+ (* 8 (^ x 2)) (- 1)) 1) x_v4q2.r) (* (root-obj (+ (* 8 (^ x 2)) (- 1)) 1) x_v4q3.r) (* (root-obj (+ (* 8 (^ x 2)) (- 1)) 2) x_v4q4.r) (* (root-obj (+ (* 8 (^ x 2)) (- 1)) 2) x_v4q5.r) (* (root-obj (+ (* 8 (^ x 2)) (- 1)) 1) x_v4q6.r) (* (root-obj (+ (* 8 (^ x 2)) (- 1)) 1) x_v4q7.r))))
 (and (= x_v5q2.r ?x224) (= x_v5q2.i ?x138)))))
(assert
 (let ((?x841 (+ (* (root-obj (+ (* 8 (^ x 2)) (- 1)) 2) x_v4q0.i) (* (root-obj (+ (* 8 (^ x 2)) (- 1)) 1) x_v4q1.i) (* (root-obj (+ (* 8 (^ x 2)) (- 1)) 1) x_v4q2.i) (* (root-obj (+ (* 8 (^ x 2)) (- 1)) 2) x_v4q3.i) (* (root-obj (+ (* 8 (^ x 2)) (- 1)) 2) x_v4q4.i) (* (root-obj (+ (* 8 (^ x 2)) (- 1)) 1) x_v4q5.i) (* (root-obj (+ (* 8 (^ x 2)) (- 1)) 1) x_v4q6.i) (* (root-obj (+ (* 8 (^ x 2)) (- 1)) 2) x_v4q7.i))))
 (let ((?x730 (+ (* (root-obj (+ (* 8 (^ x 2)) (- 1)) 2) x_v4q0.r) (* (root-obj (+ (* 8 (^ x 2)) (- 1)) 1) x_v4q1.r) (* (root-obj (+ (* 8 (^ x 2)) (- 1)) 1) x_v4q2.r) (* (root-obj (+ (* 8 (^ x 2)) (- 1)) 2) x_v4q3.r) (* (root-obj (+ (* 8 (^ x 2)) (- 1)) 2) x_v4q4.r) (* (root-obj (+ (* 8 (^ x 2)) (- 1)) 1) x_v4q5.r) (* (root-obj (+ (* 8 (^ x 2)) (- 1)) 1) x_v4q6.r) (* (root-obj (+ (* 8 (^ x 2)) (- 1)) 2) x_v4q7.r))))
 (and (= x_v5q3.r ?x730) (= x_v5q3.i ?x841)))))
(assert
 (let ((?x24 (+ (* (root-obj (+ (* 8 (^ x 2)) (- 1)) 2) x_v4q0.i) (* (root-obj (+ (* 8 (^ x 2)) (- 1)) 2) x_v4q1.i) (* (root-obj (+ (* 8 (^ x 2)) (- 1)) 2) x_v4q2.i) (* (root-obj (+ (* 8 (^ x 2)) (- 1)) 2) x_v4q3.i) (* (root-obj (+ (* 8 (^ x 2)) (- 1)) 1) x_v4q4.i) (* (root-obj (+ (* 8 (^ x 2)) (- 1)) 1) x_v4q5.i) (* (root-obj (+ (* 8 (^ x 2)) (- 1)) 1) x_v4q6.i) (* (root-obj (+ (* 8 (^ x 2)) (- 1)) 1) x_v4q7.i))))
 (let ((?x643 (+ (* (root-obj (+ (* 8 (^ x 2)) (- 1)) 2) x_v4q0.r) (* (root-obj (+ (* 8 (^ x 2)) (- 1)) 2) x_v4q1.r) (* (root-obj (+ (* 8 (^ x 2)) (- 1)) 2) x_v4q2.r) (* (root-obj (+ (* 8 (^ x 2)) (- 1)) 2) x_v4q3.r) (* (root-obj (+ (* 8 (^ x 2)) (- 1)) 1) x_v4q4.r) (* (root-obj (+ (* 8 (^ x 2)) (- 1)) 1) x_v4q5.r) (* (root-obj (+ (* 8 (^ x 2)) (- 1)) 1) x_v4q6.r) (* (root-obj (+ (* 8 (^ x 2)) (- 1)) 1) x_v4q7.r))))
 (and (= x_v5q4.r ?x643) (= x_v5q4.i ?x24)))))
(assert
 (let ((?x839 (+ (* (root-obj (+ (* 8 (^ x 2)) (- 1)) 2) x_v4q0.i) (* (root-obj (+ (* 8 (^ x 2)) (- 1)) 1) x_v4q1.i) (* (root-obj (+ (* 8 (^ x 2)) (- 1)) 2) x_v4q2.i) (* (root-obj (+ (* 8 (^ x 2)) (- 1)) 1) x_v4q3.i) (* (root-obj (+ (* 8 (^ x 2)) (- 1)) 1) x_v4q4.i) (* (root-obj (+ (* 8 (^ x 2)) (- 1)) 2) x_v4q5.i) (* (root-obj (+ (* 8 (^ x 2)) (- 1)) 1) x_v4q6.i) (* (root-obj (+ (* 8 (^ x 2)) (- 1)) 2) x_v4q7.i))))
 (let ((?x852 (+ (* (root-obj (+ (* 8 (^ x 2)) (- 1)) 2) x_v4q0.r) (* (root-obj (+ (* 8 (^ x 2)) (- 1)) 1) x_v4q1.r) (* (root-obj (+ (* 8 (^ x 2)) (- 1)) 2) x_v4q2.r) (* (root-obj (+ (* 8 (^ x 2)) (- 1)) 1) x_v4q3.r) (* (root-obj (+ (* 8 (^ x 2)) (- 1)) 1) x_v4q4.r) (* (root-obj (+ (* 8 (^ x 2)) (- 1)) 2) x_v4q5.r) (* (root-obj (+ (* 8 (^ x 2)) (- 1)) 1) x_v4q6.r) (* (root-obj (+ (* 8 (^ x 2)) (- 1)) 2) x_v4q7.r))))
 (and (= x_v5q5.r ?x852) (= x_v5q5.i ?x839)))))
(assert
 (let ((?x760 (+ (* (root-obj (+ (* 8 (^ x 2)) (- 1)) 2) x_v4q0.i) (* (root-obj (+ (* 8 (^ x 2)) (- 1)) 2) x_v4q1.i) (* (root-obj (+ (* 8 (^ x 2)) (- 1)) 1) x_v4q2.i) (* (root-obj (+ (* 8 (^ x 2)) (- 1)) 1) x_v4q3.i) (* (root-obj (+ (* 8 (^ x 2)) (- 1)) 1) x_v4q4.i) (* (root-obj (+ (* 8 (^ x 2)) (- 1)) 1) x_v4q5.i) (* (root-obj (+ (* 8 (^ x 2)) (- 1)) 2) x_v4q6.i) (* (root-obj (+ (* 8 (^ x 2)) (- 1)) 2) x_v4q7.i))))
 (let ((?x851 (+ (* (root-obj (+ (* 8 (^ x 2)) (- 1)) 2) x_v4q0.r) (* (root-obj (+ (* 8 (^ x 2)) (- 1)) 2) x_v4q1.r) (* (root-obj (+ (* 8 (^ x 2)) (- 1)) 1) x_v4q2.r) (* (root-obj (+ (* 8 (^ x 2)) (- 1)) 1) x_v4q3.r) (* (root-obj (+ (* 8 (^ x 2)) (- 1)) 1) x_v4q4.r) (* (root-obj (+ (* 8 (^ x 2)) (- 1)) 1) x_v4q5.r) (* (root-obj (+ (* 8 (^ x 2)) (- 1)) 2) x_v4q6.r) (* (root-obj (+ (* 8 (^ x 2)) (- 1)) 2) x_v4q7.r))))
 (and (= x_v5q6.r ?x851) (= x_v5q6.i ?x760)))))
(assert
 (let ((?x735 (+ (* (root-obj (+ (* 8 (^ x 2)) (- 1)) 2) x_v4q0.i) (* (root-obj (+ (* 8 (^ x 2)) (- 1)) 1) x_v4q1.i) (* (root-obj (+ (* 8 (^ x 2)) (- 1)) 1) x_v4q2.i) (* (root-obj (+ (* 8 (^ x 2)) (- 1)) 2) x_v4q3.i) (* (root-obj (+ (* 8 (^ x 2)) (- 1)) 1) x_v4q4.i) (* (root-obj (+ (* 8 (^ x 2)) (- 1)) 2) x_v4q5.i) (* (root-obj (+ (* 8 (^ x 2)) (- 1)) 2) x_v4q6.i) (* (root-obj (+ (* 8 (^ x 2)) (- 1)) 1) x_v4q7.i))))
 (let ((?x742 (+ (* (root-obj (+ (* 8 (^ x 2)) (- 1)) 2) x_v4q0.r) (* (root-obj (+ (* 8 (^ x 2)) (- 1)) 1) x_v4q1.r) (* (root-obj (+ (* 8 (^ x 2)) (- 1)) 1) x_v4q2.r) (* (root-obj (+ (* 8 (^ x 2)) (- 1)) 2) x_v4q3.r) (* (root-obj (+ (* 8 (^ x 2)) (- 1)) 1) x_v4q4.r) (* (root-obj (+ (* 8 (^ x 2)) (- 1)) 2) x_v4q5.r) (* (root-obj (+ (* 8 (^ x 2)) (- 1)) 2) x_v4q6.r) (* (root-obj (+ (* 8 (^ x 2)) (- 1)) 1) x_v4q7.r))))
 (and (= x_v5q7.r ?x742) (= x_v5q7.i ?x735)))))
(assert
 (and (= x_v8q0.r x_v5q0.r) (= x_v8q0.i x_v5q0.i)))
(assert
 (and (= x_v8q1.r (* (- 1.0) x_v5q1.r)) (= x_v8q1.i (* (- 1.0) x_v5q1.i))))
(assert
 (and (= x_v8q2.r (* (- 1.0) x_v5q2.r)) (= x_v8q2.i (* (- 1.0) x_v5q2.i))))
(assert
 (and (= x_v8q3.r (* (- 1.0) x_v5q3.r)) (= x_v8q3.i (* (- 1.0) x_v5q3.i))))
(assert
 (and (= x_v8q4.r (* (- 1.0) x_v5q4.r)) (= x_v8q4.i (* (- 1.0) x_v5q4.i))))
(assert
 (and (= x_v8q5.r (* (- 1.0) x_v5q5.r)) (= x_v8q5.i (* (- 1.0) x_v5q5.i))))
(assert
 (and (= x_v8q6.r (* (- 1.0) x_v5q6.r)) (= x_v8q6.i (* (- 1.0) x_v5q6.i))))
(assert
 (and (= x_v8q7.r (* (- 1.0) x_v5q7.r)) (= x_v8q7.i (* (- 1.0) x_v5q7.i))))
(assert
 (let ((?x579 (+ (* (root-obj (+ (* 8 (^ x 2)) (- 1)) 2) x_v8q0.i) (* (root-obj (+ (* 8 (^ x 2)) (- 1)) 2) x_v8q1.i) (* (root-obj (+ (* 8 (^ x 2)) (- 1)) 2) x_v8q2.i) (* (root-obj (+ (* 8 (^ x 2)) (- 1)) 2) x_v8q3.i) (* (root-obj (+ (* 8 (^ x 2)) (- 1)) 2) x_v8q4.i) (* (root-obj (+ (* 8 (^ x 2)) (- 1)) 2) x_v8q5.i) (* (root-obj (+ (* 8 (^ x 2)) (- 1)) 2) x_v8q6.i) (* (root-obj (+ (* 8 (^ x 2)) (- 1)) 2) x_v8q7.i))))
 (let ((?x451 (+ (* (root-obj (+ (* 8 (^ x 2)) (- 1)) 2) x_v8q0.r) (* (root-obj (+ (* 8 (^ x 2)) (- 1)) 2) x_v8q1.r) (* (root-obj (+ (* 8 (^ x 2)) (- 1)) 2) x_v8q2.r) (* (root-obj (+ (* 8 (^ x 2)) (- 1)) 2) x_v8q3.r) (* (root-obj (+ (* 8 (^ x 2)) (- 1)) 2) x_v8q4.r) (* (root-obj (+ (* 8 (^ x 2)) (- 1)) 2) x_v8q5.r) (* (root-obj (+ (* 8 (^ x 2)) (- 1)) 2) x_v8q6.r) (* (root-obj (+ (* 8 (^ x 2)) (- 1)) 2) x_v8q7.r))))
 (and (= x_v9q0.r ?x451) (= x_v9q0.i ?x579)))))
(assert
 (let ((?x442 (+ (* (root-obj (+ (* 8 (^ x 2)) (- 1)) 2) x_v8q0.i) (* (root-obj (+ (* 8 (^ x 2)) (- 1)) 1) x_v8q1.i) (* (root-obj (+ (* 8 (^ x 2)) (- 1)) 2) x_v8q2.i) (* (root-obj (+ (* 8 (^ x 2)) (- 1)) 1) x_v8q3.i) (* (root-obj (+ (* 8 (^ x 2)) (- 1)) 2) x_v8q4.i) (* (root-obj (+ (* 8 (^ x 2)) (- 1)) 1) x_v8q5.i) (* (root-obj (+ (* 8 (^ x 2)) (- 1)) 2) x_v8q6.i) (* (root-obj (+ (* 8 (^ x 2)) (- 1)) 1) x_v8q7.i))))
 (let ((?x828 (+ (* (root-obj (+ (* 8 (^ x 2)) (- 1)) 2) x_v8q0.r) (* (root-obj (+ (* 8 (^ x 2)) (- 1)) 1) x_v8q1.r) (* (root-obj (+ (* 8 (^ x 2)) (- 1)) 2) x_v8q2.r) (* (root-obj (+ (* 8 (^ x 2)) (- 1)) 1) x_v8q3.r) (* (root-obj (+ (* 8 (^ x 2)) (- 1)) 2) x_v8q4.r) (* (root-obj (+ (* 8 (^ x 2)) (- 1)) 1) x_v8q5.r) (* (root-obj (+ (* 8 (^ x 2)) (- 1)) 2) x_v8q6.r) (* (root-obj (+ (* 8 (^ x 2)) (- 1)) 1) x_v8q7.r))))
 (and (= x_v9q1.r ?x828) (= x_v9q1.i ?x442)))))
(assert
 (let ((?x102 (+ (* (root-obj (+ (* 8 (^ x 2)) (- 1)) 2) x_v8q0.i) (* (root-obj (+ (* 8 (^ x 2)) (- 1)) 2) x_v8q1.i) (* (root-obj (+ (* 8 (^ x 2)) (- 1)) 1) x_v8q2.i) (* (root-obj (+ (* 8 (^ x 2)) (- 1)) 1) x_v8q3.i) (* (root-obj (+ (* 8 (^ x 2)) (- 1)) 2) x_v8q4.i) (* (root-obj (+ (* 8 (^ x 2)) (- 1)) 2) x_v8q5.i) (* (root-obj (+ (* 8 (^ x 2)) (- 1)) 1) x_v8q6.i) (* (root-obj (+ (* 8 (^ x 2)) (- 1)) 1) x_v8q7.i))))
 (let ((?x441 (+ (* (root-obj (+ (* 8 (^ x 2)) (- 1)) 2) x_v8q0.r) (* (root-obj (+ (* 8 (^ x 2)) (- 1)) 2) x_v8q1.r) (* (root-obj (+ (* 8 (^ x 2)) (- 1)) 1) x_v8q2.r) (* (root-obj (+ (* 8 (^ x 2)) (- 1)) 1) x_v8q3.r) (* (root-obj (+ (* 8 (^ x 2)) (- 1)) 2) x_v8q4.r) (* (root-obj (+ (* 8 (^ x 2)) (- 1)) 2) x_v8q5.r) (* (root-obj (+ (* 8 (^ x 2)) (- 1)) 1) x_v8q6.r) (* (root-obj (+ (* 8 (^ x 2)) (- 1)) 1) x_v8q7.r))))
 (and (= x_v9q2.r ?x441) (= x_v9q2.i ?x102)))))
(assert
 (let ((?x798 (+ (* (root-obj (+ (* 8 (^ x 2)) (- 1)) 2) x_v8q0.i) (* (root-obj (+ (* 8 (^ x 2)) (- 1)) 1) x_v8q1.i) (* (root-obj (+ (* 8 (^ x 2)) (- 1)) 1) x_v8q2.i) (* (root-obj (+ (* 8 (^ x 2)) (- 1)) 2) x_v8q3.i) (* (root-obj (+ (* 8 (^ x 2)) (- 1)) 2) x_v8q4.i) (* (root-obj (+ (* 8 (^ x 2)) (- 1)) 1) x_v8q5.i) (* (root-obj (+ (* 8 (^ x 2)) (- 1)) 1) x_v8q6.i) (* (root-obj (+ (* 8 (^ x 2)) (- 1)) 2) x_v8q7.i))))
 (let ((?x46 (+ (* (root-obj (+ (* 8 (^ x 2)) (- 1)) 2) x_v8q0.r) (* (root-obj (+ (* 8 (^ x 2)) (- 1)) 1) x_v8q1.r) (* (root-obj (+ (* 8 (^ x 2)) (- 1)) 1) x_v8q2.r) (* (root-obj (+ (* 8 (^ x 2)) (- 1)) 2) x_v8q3.r) (* (root-obj (+ (* 8 (^ x 2)) (- 1)) 2) x_v8q4.r) (* (root-obj (+ (* 8 (^ x 2)) (- 1)) 1) x_v8q5.r) (* (root-obj (+ (* 8 (^ x 2)) (- 1)) 1) x_v8q6.r) (* (root-obj (+ (* 8 (^ x 2)) (- 1)) 2) x_v8q7.r))))
 (and (= x_v9q3.r ?x46) (= x_v9q3.i ?x798)))))
(assert
 (let ((?x429 (+ (* (root-obj (+ (* 8 (^ x 2)) (- 1)) 2) x_v8q0.i) (* (root-obj (+ (* 8 (^ x 2)) (- 1)) 2) x_v8q1.i) (* (root-obj (+ (* 8 (^ x 2)) (- 1)) 2) x_v8q2.i) (* (root-obj (+ (* 8 (^ x 2)) (- 1)) 2) x_v8q3.i) (* (root-obj (+ (* 8 (^ x 2)) (- 1)) 1) x_v8q4.i) (* (root-obj (+ (* 8 (^ x 2)) (- 1)) 1) x_v8q5.i) (* (root-obj (+ (* 8 (^ x 2)) (- 1)) 1) x_v8q6.i) (* (root-obj (+ (* 8 (^ x 2)) (- 1)) 1) x_v8q7.i))))
 (let ((?x459 (+ (* (root-obj (+ (* 8 (^ x 2)) (- 1)) 2) x_v8q0.r) (* (root-obj (+ (* 8 (^ x 2)) (- 1)) 2) x_v8q1.r) (* (root-obj (+ (* 8 (^ x 2)) (- 1)) 2) x_v8q2.r) (* (root-obj (+ (* 8 (^ x 2)) (- 1)) 2) x_v8q3.r) (* (root-obj (+ (* 8 (^ x 2)) (- 1)) 1) x_v8q4.r) (* (root-obj (+ (* 8 (^ x 2)) (- 1)) 1) x_v8q5.r) (* (root-obj (+ (* 8 (^ x 2)) (- 1)) 1) x_v8q6.r) (* (root-obj (+ (* 8 (^ x 2)) (- 1)) 1) x_v8q7.r))))
 (and (= x_v9q4.r ?x459) (= x_v9q4.i ?x429)))))
(assert
 (let ((?x255 (+ (* (root-obj (+ (* 8 (^ x 2)) (- 1)) 2) x_v8q0.i) (* (root-obj (+ (* 8 (^ x 2)) (- 1)) 1) x_v8q1.i) (* (root-obj (+ (* 8 (^ x 2)) (- 1)) 2) x_v8q2.i) (* (root-obj (+ (* 8 (^ x 2)) (- 1)) 1) x_v8q3.i) (* (root-obj (+ (* 8 (^ x 2)) (- 1)) 1) x_v8q4.i) (* (root-obj (+ (* 8 (^ x 2)) (- 1)) 2) x_v8q5.i) (* (root-obj (+ (* 8 (^ x 2)) (- 1)) 1) x_v8q6.i) (* (root-obj (+ (* 8 (^ x 2)) (- 1)) 2) x_v8q7.i))))
 (let ((?x462 (+ (* (root-obj (+ (* 8 (^ x 2)) (- 1)) 2) x_v8q0.r) (* (root-obj (+ (* 8 (^ x 2)) (- 1)) 1) x_v8q1.r) (* (root-obj (+ (* 8 (^ x 2)) (- 1)) 2) x_v8q2.r) (* (root-obj (+ (* 8 (^ x 2)) (- 1)) 1) x_v8q3.r) (* (root-obj (+ (* 8 (^ x 2)) (- 1)) 1) x_v8q4.r) (* (root-obj (+ (* 8 (^ x 2)) (- 1)) 2) x_v8q5.r) (* (root-obj (+ (* 8 (^ x 2)) (- 1)) 1) x_v8q6.r) (* (root-obj (+ (* 8 (^ x 2)) (- 1)) 2) x_v8q7.r))))
 (and (= x_v9q5.r ?x462) (= x_v9q5.i ?x255)))))
(assert
 (let ((?x271 (+ (* (root-obj (+ (* 8 (^ x 2)) (- 1)) 2) x_v8q0.i) (* (root-obj (+ (* 8 (^ x 2)) (- 1)) 2) x_v8q1.i) (* (root-obj (+ (* 8 (^ x 2)) (- 1)) 1) x_v8q2.i) (* (root-obj (+ (* 8 (^ x 2)) (- 1)) 1) x_v8q3.i) (* (root-obj (+ (* 8 (^ x 2)) (- 1)) 1) x_v8q4.i) (* (root-obj (+ (* 8 (^ x 2)) (- 1)) 1) x_v8q5.i) (* (root-obj (+ (* 8 (^ x 2)) (- 1)) 2) x_v8q6.i) (* (root-obj (+ (* 8 (^ x 2)) (- 1)) 2) x_v8q7.i))))
 (let ((?x431 (+ (* (root-obj (+ (* 8 (^ x 2)) (- 1)) 2) x_v8q0.r) (* (root-obj (+ (* 8 (^ x 2)) (- 1)) 2) x_v8q1.r) (* (root-obj (+ (* 8 (^ x 2)) (- 1)) 1) x_v8q2.r) (* (root-obj (+ (* 8 (^ x 2)) (- 1)) 1) x_v8q3.r) (* (root-obj (+ (* 8 (^ x 2)) (- 1)) 1) x_v8q4.r) (* (root-obj (+ (* 8 (^ x 2)) (- 1)) 1) x_v8q5.r) (* (root-obj (+ (* 8 (^ x 2)) (- 1)) 2) x_v8q6.r) (* (root-obj (+ (* 8 (^ x 2)) (- 1)) 2) x_v8q7.r))))
 (and (= x_v9q6.r ?x431) (= x_v9q6.i ?x271)))))
(assert
 (let ((?x383 (+ (* (root-obj (+ (* 8 (^ x 2)) (- 1)) 2) x_v8q0.i) (* (root-obj (+ (* 8 (^ x 2)) (- 1)) 1) x_v8q1.i) (* (root-obj (+ (* 8 (^ x 2)) (- 1)) 1) x_v8q2.i) (* (root-obj (+ (* 8 (^ x 2)) (- 1)) 2) x_v8q3.i) (* (root-obj (+ (* 8 (^ x 2)) (- 1)) 1) x_v8q4.i) (* (root-obj (+ (* 8 (^ x 2)) (- 1)) 2) x_v8q5.i) (* (root-obj (+ (* 8 (^ x 2)) (- 1)) 2) x_v8q6.i) (* (root-obj (+ (* 8 (^ x 2)) (- 1)) 1) x_v8q7.i))))
 (let ((?x538 (+ (* (root-obj (+ (* 8 (^ x 2)) (- 1)) 2) x_v8q0.r) (* (root-obj (+ (* 8 (^ x 2)) (- 1)) 1) x_v8q1.r) (* (root-obj (+ (* 8 (^ x 2)) (- 1)) 1) x_v8q2.r) (* (root-obj (+ (* 8 (^ x 2)) (- 1)) 2) x_v8q3.r) (* (root-obj (+ (* 8 (^ x 2)) (- 1)) 1) x_v8q4.r) (* (root-obj (+ (* 8 (^ x 2)) (- 1)) 2) x_v8q5.r) (* (root-obj (+ (* 8 (^ x 2)) (- 1)) 2) x_v8q6.r) (* (root-obj (+ (* 8 (^ x 2)) (- 1)) 1) x_v8q7.r))))
 (and (= x_v9q7.r ?x538) (= x_v9q7.i ?x383)))))
(assert
 (and (and (<= Pr_x_v9_0 1.0) (>= Pr_x_v9_0 0.0)) (and (<= Pr_x_v9_1 1.0) (>= Pr_x_v9_1 0.0)) (and (<= Pr_x_v9_2 1.0) (>= Pr_x_v9_2 0.0)) (and (<= Pr_x_v9_3 1.0) (>= Pr_x_v9_3 0.0)) (and (<= Pr_x_v9_4 1.0) (>= Pr_x_v9_4 0.0)) (and (<= Pr_x_v9_5 1.0) (>= Pr_x_v9_5 0.0)) (and (<= Pr_x_v9_6 1.0) (>= Pr_x_v9_6 0.0)) (and (<= Pr_x_v9_7 1.0) (>= Pr_x_v9_7 0.0))))
(assert
 (let ((?x386 (+ Pr_x_v9_0 Pr_x_v9_1 Pr_x_v9_2 Pr_x_v9_3 Pr_x_v9_4 Pr_x_v9_5 Pr_x_v9_6 Pr_x_v9_7)))
 (= Pr_x_v9_sum ?x386)))
(assert
 (= Pr_x_v9_sum 1.0))
(assert
 (= Pr_x_v9_0 (+ (+ (^ x_v9q0.r 2.0) (^ x_v9q0.i 2.0)))))
(assert
 (= Pr_x_v9_1 (+ (+ (^ x_v9q1.r 2.0) (^ x_v9q1.i 2.0)))))
(assert
 (= Pr_x_v9_2 (+ (+ (^ x_v9q2.r 2.0) (^ x_v9q2.i 2.0)))))
(assert
 (= Pr_x_v9_3 (+ (+ (^ x_v9q3.r 2.0) (^ x_v9q3.i 2.0)))))
(assert
 (= Pr_x_v9_4 (+ (+ (^ x_v9q4.r 2.0) (^ x_v9q4.i 2.0)))))
(assert
 (= Pr_x_v9_5 (+ (+ (^ x_v9q5.r 2.0) (^ x_v9q5.i 2.0)))))
(assert
 (= Pr_x_v9_6 (+ (+ (^ x_v9q6.r 2.0) (^ x_v9q6.i 2.0)))))
(assert
 (= Pr_x_v9_7 (+ (+ (^ x_v9q7.r 2.0) (^ x_v9q7.i 2.0)))))
(assert
 (and (>= hprob_x Pr_x_v9_0) (>= hprob_x Pr_x_v9_1) (>= hprob_x Pr_x_v9_2) (>= hprob_x Pr_x_v9_3) (>= hprob_x Pr_x_v9_4) (>= hprob_x Pr_x_v9_5) (>= hprob_x Pr_x_v9_6) (>= hprob_x Pr_x_v9_7)))
(assert
 (and (=> (= hprob_x Pr_x_v9_0) (= a 0)) (=> (= a 0) (= hprob_x Pr_x_v9_0))))
(assert
 (and (=> (= hprob_x Pr_x_v9_1) (= a 1)) (=> (= a 1) (= hprob_x Pr_x_v9_1))))
(assert
 (and (=> (= hprob_x Pr_x_v9_2) (= a 2)) (=> (= a 2) (= hprob_x Pr_x_v9_2))))
(assert
 (and (=> (= hprob_x Pr_x_v9_3) (= a 3)) (=> (= a 3) (= hprob_x Pr_x_v9_3))))
(assert
 (and (=> (= hprob_x Pr_x_v9_4) (= a 4)) (=> (= a 4) (= hprob_x Pr_x_v9_4))))
(assert
 (and (=> (= hprob_x Pr_x_v9_5) (= a 5)) (=> (= a 5) (= hprob_x Pr_x_v9_5))))
(assert
 (and (=> (= hprob_x Pr_x_v9_6) (= a 6)) (=> (= a 6) (= hprob_x Pr_x_v9_6))))
(assert
 (and (=> (= hprob_x Pr_x_v9_7) (= a 7)) (=> (= a 7) (= hprob_x Pr_x_v9_7))))
(assert
 (= meas_x a))
(assert
 (= x_v0c meas_x))
(assert
 (= grover_fixed_ret x_v0c))
(check-sat)
